# Objective value = 3.0449777919415988e+02
x[0] 0
x[1] 1
x[2] 0
x[3] 1
x[4] 1
x[5] 1
x[6] 0
x[7] 1
x[8] 0
x[9] 0
x[10] 1
x[11] 0
x[12] 0
x[13] 0
x[14] 1
x[15] 0
x[16] 0
x[17] 0
x[18] 1
x[19] 0
x[20] 0
x[21] 0
x[22] 0
x[23] 1
x[24] 1
x[25] 1
x[26] 1
x[27] 0
x[28] 1
x[29] 1
x[30] 0
x[31] 0
x[32] 0
x[33] 1
x[34] 1
x[35] 1
x[36] 1
x[37] 1
x[38] 0
x[39] 0
x[40] 1
x[41] 1
x[42] 1
x[43] 0
x[44] 0
x[45] 1
x[46] 1
x[47] 0
x[48] 0
x[49] 1
x[50] 1
x[51] 0
x[52] 1
x[53] 0
x[54] 0
x[55] 1
x[56] 0
x[57] 0
x[58] 0
x[59] 0
x[60] 0
x[61] 0
x[62] 0
x[63] 0
x[64] 1
x[65] 0
x[66] 1
x[67] 1
x[68] 1
x[69] 1
x[70] 0
x[71] 0
x[72] 0
x[73] 0
x[74] 0
x[75] 1
x[76] 0
x[77] 0
x[78] 1
x[79] 1
x[80] 0
x[81] 1
x[82] 1
x[83] 0
x[84] 1
x[85] 0
x[86] 0
x[87] 1
x[88] 0
x[89] 0
x[90] 1
x[91] 1
x[92] 1
x[93] 0
x[94] 0
x[95] 1
x[96] 1
x[97] 1
x[98] 1
x[99] 0
x[100] 1
x[101] 0
x[102] 1
x[103] 0
x[104] 1
x[105] 1
x[106] 1
x[107] 1
x[108] 0
x[109] 1
x[110] 1
x[111] 1
x[112] 1
x[113] 1
x[114] 0
x[115] 0
x[116] 0
x[117] 1
x[118] 0
x[119] 1
x[120] 0
x[121] 1
x[122] 1
x[123] 1
x[124] 1
x[125] 1
x[126] 0
x[127] 0
x[128] 1
x[129] 1
x[130] 1
x[131] 0
x[132] 1
x[133] 1
x[134] 1
x[135] 1
x[136] 0
x[137] 1
x[138] 0
x[139] 0
x[140] 1
x[141] 1
x[142] 1
x[143] 0
x[144] 0
x[145] 0
x[146] 1
x[147] 0
x[148] 1
x[149] 0
x[150] 1
x[151] 0
x[152] 1
x[153] 0
x[154] 0
x[155] 1
x[156] 0
x[157] 0
x[158] 0
x[159] 1
x[160] 0
x[161] 0
x[162] 0
x[163] 1
x[164] 1
x[165] 0
x[166] 0
x[167] 1
x[168] 1
x[169] 1
x[170] 1
x[171] 1
x[172] 0
x[173] 0
x[174] 1
x[175] 0
x[176] 1
x[177] 0
x[178] 1
x[179] 0
x[180] 0
x[181] 0
x[182] 1
x[183] 0
x[184] 0
x[185] 0
x[186] 1
x[187] 0
x[188] 1
x[189] 1
x[190] 0
x[191] 1
x[192] 0
x[193] 0
x[194] 1
x[195] 0
x[196] 0
x[197] 0
x[198] 1
x[199] 1
x[200] 0
x[201] 1
x[202] 0
x[203] 0
x[204] 0
x[205] 0
x[206] 0
x[207] 1
x[208] 0
x[209] 0
x[210] 1
x[211] 0
x[212] 0
x[213] 1
x[214] 1
x[215] 0
x[216] 1
x[217] 1
x[218] 0
x[219] 1
x[220] 0
x[221] 1
x[222] 1
x[223] 0
x[224] 0
x[225] 1
x[226] 0
x[227] 0
x[228] 0
x[229] 0
x[230] 1
x[231] 1
x[232] 0
x[233] 1
x[234] 0
x[235] 1
x[236] 1
x[237] 1
x[238] 0
x[239] 1
x[240] 1
x[241] 0
x[242] 0
x[243] 1
x[244] 0
x[245] 1
x[246] 1
x[247] 1
x[248] 1
x[249] 0
x[250] 1
x[251] 0
x[252] 0
x[253] 0
x[254] 1
x[255] 1
x[256] 0
x[257] 0
x[258] 1
x[259] 1
x[260] 0
x[261] 1
x[262] 1
x[263] 0
x[264] 0
x[265] 0
x[266] 0
x[267] 1
x[268] 1
x[269] 0
x[270] 0
x[271] 0
x[272] 1
x[273] 1
x[274] 0
x[275] 0
x[276] 0
x[277] 0
x[278] 0
x[279] 1
x[280] 1
x[281] 1
x[282] 0
x[283] 0
x[284] 1
x[285] 0
x[286] 1
x[287] 1
x[288] 1
x[289] 0
x[290] 1
x[291] 1
x[292] 0
x[293] 0
x[294] 1
x[295] 0
x[296] 0
x[297] 1
x[298] 1
x[299] 1
x[300] 0
x[301] 1
x[302] 1
x[303] 1
x[304] 0
x[305] 0
x[306] 0
x[307] 1
x[308] 1
x[309] 0
x[310] 1
x[311] 1
x[312] 1
x[313] 0
x[314] 1
x[315] 1
x[316] 0
x[317] 1
x[318] 1
x[319] 1
x[320] 1
x[321] 0
x[322] 0
x[323] 0
x[324] 0
x[325] 0
x[326] 0
x[327] 0
x[328] 1
x[329] 1
x[330] 1
x[331] 0
x[332] 1
x[333] 1
x[334] 1
x[335] 1
x[336] 0
x[337] 1
x[338] 0
x[339] 0
x[340] 1
x[341] 0
x[342] 0
x[343] 0
x[344] 0
x[345] 1
x[346] 1
x[347] 1
x[348] 1
x[349] 1
x[350] 0
x[351] 0
x[352] 1
x[353] 1
x[354] 0
x[355] 0
x[356] 0
x[357] 1
x[358] 0
x[359] 0
x[360] 0
x[361] 0
x[362] 1
x[363] 1
x[364] 1
x[365] 1
x[366] 0
x[367] 1
x[368] 1
x[369] 0
x[370] 1
x[371] 0
x[372] 0
x[373] 1
x[374] 0
x[375] 0
x[376] 1
x[377] 0
x[378] 0
x[379] 0
x[380] 0
x[381] 0
x[382] 1
x[383] 0
x[384] 0
x[385] 1
x[386] 1
x[387] 0
x[388] 1
x[389] 0
x[390] 0
x[391] 1
x[392] 1
x[393] 0
x[394] 1
x[395] 0
x[396] 0
x[397] 0
x[398] 0
x[399] 0
x[400] 1
x[401] 1
x[402] 0
x[403] 1
x[404] 0
x[405] 0
x[406] 0
x[407] 1
x[408] 0
x[409] 1
x[410] 0
x[411] 0
x[412] 0
x[413] 1
x[414] 1
x[415] 1
x[416] 1
x[417] 1
x[418] 0
x[419] 0
x[420] 1
x[421] 0
x[422] 0
x[423] 1
x[424] 0
x[425] 0
x[426] 1
x[427] 0
x[428] 0
x[429] 1
x[430] 0
x[431] 1
x[432] 0
x[433] 0
x[434] 1
x[435] 0
x[436] 0
x[437] 1
x[438] 1
x[439] 1
x[440] 1
x[441] 0
x[442] 0
x[443] 1
x[444] 0
x[445] 1
x[446] 0
x[447] 1
x[448] 0
x[449] 0
x[450] 0
x[451] 0
x[452] 1
x[453] 0
x[454] 0
x[455] 1
x[456] 0
x[457] 1
x[458] 0
x[459] 0
x[460] 0
x[461] 0
x[462] 1
x[463] 0
x[464] 0
x[465] 0
x[466] 0
x[467] 1
x[468] 0
x[469] 1
x[470] 1
x[471] 0
x[472] 1
x[473] 0
x[474] 0
x[475] 1
x[476] 0
x[477] 1
x[478] 1
x[479] 1
x[480] 1
x[481] 1
x[482] 0
x[483] 0
x[484] 0
x[485] 1
x[486] 0
x[487] 1
x[488] 1
x[489] 0
x[490] 1
x[491] 0
x[492] 1
x[493] 0
x[494] 0
x[495] 0
x[496] 1
x[497] 0
x[498] 1
x[499] 0
x[500] 0
x[501] 0
x[502] 0
x[503] 0
x[504] 0
x[505] 0
x[506] 0
x[507] 1
x[508] 1
x[509] 1
x[510] 0
x[511] 0
x[512] 1
x[513] 0
x[514] 1
x[515] 1
x[516] 0
x[517] 0
x[518] 1
x[519] 0
x[520] 0
x[521] 1
x[522] 0
x[523] 1
x[524] 1
x[525] 0
x[526] 1
x[527] 0
x[528] 1
x[529] 1
x[530] 0
x[531] 0
x[532] 0
x[533] 1
x[534] 1
x[535] 1
x[536] 1
x[537] 1
x[538] 0
x[539] 1
x[540] 1
x[541] 0
x[542] 0
x[543] 1
x[544] 1
x[545] 1
x[546] 0
x[547] 1
x[548] 1
x[549] 0
x[550] 0
x[551] 0
x[552] 1
x[553] 0
x[554] 0
x[555] 0
x[556] 0
x[557] 0
x[558] 0
x[559] 1
x[560] 0
x[561] 0
x[562] 0
x[563] 0
x[564] 1
x[565] 1
x[566] 1
x[567] 0
x[568] 0
x[569] 1
x[570] 0
x[571] 1
x[572] 0
x[573] 1
x[574] 1
x[575] 0
x[576] 1
x[577] 0
x[578] 1
x[579] 1
x[580] 1
x[581] 0
x[582] 0
x[583] 1
x[584] 1
x[585] 1
x[586] 0
x[587] 1
x[588] 1
x[589] 1
x[590] 1
x[591] 1
x[592] 0
x[593] 1
x[594] 1
x[595] 0
x[596] 1
x[597] 0
x[598] 1
x[599] 1
x[600] 0
x[601] 1
x[602] 0
x[603] 1
x[604] 0
x[605] 1
x[606] 0
x[607] 1
x[608] 1
x[609] 0
x[610] 0
x[611] 0
x[612] 1
x[613] 1
x[614] 0
x[615] 0
x[616] 0
x[617] 1
x[618] 0
x[619] 1
x[620] 0
x[621] 1
x[622] 1
x[623] 0
x[624] 0
x[625] 0
x[626] 0
x[627] 0
x[628] 0
x[629] 0
x[630] 1
x[631] 1
x[632] 0
x[633] 1
x[634] 1
x[635] 1
x[636] 0
x[637] 0
x[638] 0
x[639] 0
x[640] 1
x[641] 0
x[642] 0
x[643] 1
x[644] 1
x[645] 0
x[646] 0
x[647] 0
x[648] 1
x[649] 1
x[650] 1
x[651] 0
x[652] 1
x[653] 1
x[654] 1
x[655] 0
x[656] 0
x[657] 0
x[658] 0
x[659] 0
x[660] 0
x[661] 0
x[662] 0
x[663] 0
x[664] 0
x[665] 1
x[666] 0
x[667] 1
x[668] 0
x[669] 1
x[670] 0
x[671] 0
x[672] 0
x[673] 1
x[674] 0
x[675] 1
x[676] 0
x[677] 1
x[678] 1
x[679] 0
x[680] 1
x[681] 0
x[682] 0
x[683] 1
x[684] 0
x[685] 0
x[686] 1
x[687] 0
x[688] 1
x[689] 1
x[690] 1
x[691] 1
x[692] 0
x[693] 0
x[694] 1
x[695] 0
x[696] 1
x[697] 1
x[698] 0
x[699] 1
x[700] 0
x[701] 0
x[702] 1
x[703] 0
x[704] 1
x[705] 0
x[706] 0
x[707] 0
x[708] 1
x[709] 1
x[710] 0
x[711] 1
x[712] 1
x[713] 1
x[714] 0
x[715] 0
x[716] 0
x[717] 0
x[718] 0
x[719] 1
x[720] 0
x[721] 0
x[722] 1
x[723] 0
x[724] 0
x[725] 0
x[726] 0
x[727] 0
x[728] 0
x[729] 0
x[730] 1
x[731] 0
x[732] 0
x[733] 0
x[734] 1
x[735] 1
x[736] 0
x[737] 0
x[738] 0
x[739] 0
x[740] 1
x[741] 0
x[742] 0
x[743] 0
x[744] 1
x[745] 0
x[746] 0
x[747] 0
x[748] 1
x[749] 1
x[750] 0
x[751] 0
x[752] 1
x[753] 0
x[754] 1
x[755] 0
x[756] 1
x[757] 0
x[758] 0
x[759] 1
x[760] 1
x[761] 1
x[762] 0
x[763] 1
x[764] 0
x[765] 0
x[766] 0
x[767] 0
x[768] 0
x[769] 1
x[770] 0
x[771] 1
x[772] 0
x[773] 1
x[774] 1
x[775] 1
x[776] 0
x[777] 0
x[778] 0
x[779] 1
x[780] 1
x[781] 0
x[782] 0
x[783] 0
x[784] 1
x[785] 1
x[786] 1
x[787] 1
x[788] 1
x[789] 0
x[790] 1
x[791] 1
x[792] 1
x[793] 0
x[794] 0
x[795] 1
x[796] 1
x[797] 1
x[798] 1
x[799] 0
x[800] 1
x[801] 0
x[802] 1
x[803] 0
x[804] 1
x[805] 0
x[806] 0
x[807] 0
x[808] 0
x[809] 1
x[810] 1
x[811] 1
x[812] 0
x[813] 0
x[814] 0
x[815] 1
x[816] 0
x[817] 0
x[818] 0
x[819] 1
x[820] 0
x[821] 1
x[822] 0
x[823] 0
x[824] 0
x[825] 0
x[826] 1
x[827] 0
x[828] 1
x[829] 1
x[830] 1
x[831] 1
x[832] 0
x[833] 1
x[834] 0
x[835] 1
x[836] 1
x[837] 1
x[838] 0
x[839] 0
x[840] 0
x[841] 1
x[842] 1
x[843] 0
x[844] 0
x[845] 1
x[846] 1
x[847] 0
x[848] 1
x[849] 0
x[850] 1
x[851] 1
x[852] 0
x[853] 1
x[854] 1
x[855] 1
x[856] 1
x[857] 1
x[858] 0
x[859] 1
x[860] 1
x[861] 1
x[862] 1
x[863] 1
x[864] 0
x[865] 0
x[866] 0
x[867] 0
x[868] 0
x[869] 1
x[870] 0
x[871] 0
x[872] 1
x[873] 0
x[874] 1
x[875] 1
x[876] 1
x[877] 1
x[878] 1
x[879] 0
x[880] 0
x[881] 1
x[882] 0
x[883] 0
x[884] 0
x[885] 0
x[886] 1
x[887] 0
x[888] 0
x[889] 1
x[890] 1
x[891] 0
x[892] 1
x[893] 0
x[894] 0
x[895] 1
x[896] 0
x[897] 0
x[898] 0
x[899] 0
x[900] 0
x[901] 0
x[902] 0
x[903] 1
x[904] 0
x[905] 0
x[906] 1
x[907] 0
x[908] 1
x[909] 0
x[910] 0
x[911] 1
x[912] 1
x[913] 1
x[914] 1
x[915] 0
x[916] 1
x[917] 0
x[918] 0
x[919] 1
x[920] 1
x[921] 0
x[922] 0
x[923] 0
x[924] 1
x[925] 1
x[926] 1
x[927] 1
x[928] 0
x[929] 1
x[930] 0
x[931] 0
x[932] 0
x[933] 0
x[934] 1
x[935] 0
x[936] 0
x[937] 0
x[938] 0
x[939] 0
x[940] 0
x[941] 0
x[942] 0
x[943] 0
x[944] 1
x[945] 1
x[946] 1
x[947] 0
x[948] 1
x[949] 1
x[950] 0
x[951] 1
x[952] 0
x[953] 1
x[954] 0
x[955] 1
x[956] 0
x[957] 1
x[958] 1
x[959] 1
x[960] 1
x[961] 0
x[962] 1
x[963] 1
x[964] 1
x[965] 0
x[966] 1
x[967] 1
x[968] 0
x[969] 0
x[970] 0
x[971] 0
x[972] 0
x[973] 0
x[974] 1
x[975] 1
x[976] 1
x[977] 1
x[978] 0
x[979] 0
x[980] 0
x[981] 1
x[982] 1
x[983] 1
x[984] 1
x[985] 1
x[986] 1
x[987] 0
x[988] 0
x[989] 0
x[990] 1
x[991] 0
x[992] 0
x[993] 0
x[994] 0
x[995] 1
x[996] 1
x[997] 0
x[998] 0
x[999] 1
